* LP written by GAMS Convert at 12/20/23 12:32:58
*
* Equation counts
*     Total        E        G        L        N        X        C        B
*        73        1       72        0        0        0        0        0
*
* Variable counts
*                  x        b        i      s1s      s2s       sc       si
*     Total     cont   binary  integer     sos1     sos2    scont     sint
*       307      307        0        0        0        0        0        0
* FX      0
*
* Nonzero counts
*     Total    const       NL
*       851      851        0

NAME          Convert
*
* original model was minimizing
*
ROWS
 N  obj
 G  e1
 G  e2
 G  e3
 G  e4
 G  e5
 G  e6
 G  e7
 G  e8
 G  e9
 G  e10
 G  e11
 G  e12
 G  e13
 G  e14
 G  e15
 G  e16
 G  e17
 G  e18
 G  e19
 G  e20
 G  e21
 G  e22
 G  e23
 G  e24
 G  e25
 G  e26
 G  e27
 G  e28
 G  e29
 G  e30
 G  e31
 G  e32
 G  e33
 G  e34
 G  e35
 G  e36
 G  e37
 G  e38
 G  e39
 G  e40
 G  e41
 G  e42
 G  e43
 G  e44
 G  e45
 G  e46
 G  e47
 G  e48
 G  e49
 G  e50
 G  e51
 G  e52
 G  e53
 G  e54
 G  e55
 G  e56
 G  e57
 G  e58
 G  e59
 G  e60
 G  e61
 G  e62
 G  e63
 G  e64
 G  e65
 G  e66
 G  e67
 G  e68
 G  e69
 G  e70
 G  e71
 G  e72
COLUMNS
    x1        e1                   1
    x1    obj    58.0
    x2        e8                   1
    x2    obj    25.0
    x3        e1                  -1
    x3    obj    58.0
    x4        e1                  -1
    x4        e3                   1
    x4    obj    29.0
    x5        e1                  -1
    x5        e5                   1
    x5    obj    32.0
    x6        e1                  -1
    x6        e6                   1
    x6    obj    130.0
    x7        e1                  -1
    x7        e7                   1
    x7    obj    85.0
    x8        e2                  -1
    x8        e3                   1
    x8    obj    29.0
    x9        e2                  -1
    x9        e4                   1
    x9    obj    85.0
    x10       e2                  -1
    x10       e5                   1
    x10    obj    28.0
    x11       e2                  -1
    x11       e7                   1
    x11    obj    75.0
    x12       e1                   1
    x12       e3                  -1
    x12    obj    29.0
    x13       e2                   1
    x13       e3                  -1
    x13    obj    29.0
    x14       e3                  -1
    x14       e5                   1
    x14    obj    27.0
    x15       e3                  -1
    x15       e7                   1
    x15    obj    66.0
    x16       e3                  -1
    x16       e8                   1
    x16    obj    62.0
    x17       e2                   1
    x17       e4                  -1
    x17    obj    85.0
    x18       e4                  -1
    x18       e6                   1
    x18    obj    58.0
    x19       e4                  -1
    x19       e7                   1
    x19    obj    43.0
    x20       e1                   1
    x20       e5                  -1
    x20    obj    32.0
    x21       e2                   1
    x21       e5                  -1
    x21    obj    28.0
    x22       e3                   1
    x22       e5                  -1
    x22    obj    27.0
    x23       e5                  -1
    x23       e8                   1
    x23    obj    53.0
    x24       e1                   1
    x24       e6                  -1
    x24    obj    130.0
    x25       e4                   1
    x25       e6                  -1
    x25    obj    58.0
    x26       e6                  -1
    x26       e7                   1
    x26    obj    48.0
    x27       e1                   1
    x27       e7                  -1
    x27    obj    85.0
    x28       e2                   1
    x28       e7                  -1
    x28    obj    75.0
    x29       e3                   1
    x29       e7                  -1
    x29    obj    66.0
    x30       e4                   1
    x30       e7                  -1
    x30    obj    43.0
    x31       e6                   1
    x31       e7                  -1
    x31    obj    48.0
    x32       e8                  -1
    x32    obj    25.0
    x33       e3                   1
    x33       e8                  -1
    x33    obj    62.0
    x34       e5                   1
    x34       e8                  -1
    x34    obj    53.0
    x35       e9                  -1
    x35    obj    58.0
    x36       e9                  -1
    x36       e16                  1
    x36    obj    25.0
    x37       e9                   1
    x37    obj    58.0
    x38       e11                  1
    x38    obj    29.0
    x39       e13                  1
    x39    obj    32.0
    x40       e14                  1
    x40    obj    130.0
    x41       e15                  1
    x41    obj    85.0
    x42       e10                 -1
    x42       e11                  1
    x42    obj    29.0
    x43       e10                 -1
    x43       e12                  1
    x43    obj    85.0
    x44       e10                 -1
    x44       e13                  1
    x44    obj    28.0
    x45       e10                 -1
    x45       e15                  1
    x45    obj    75.0
    x46       e11                 -1
    x46    obj    29.0
    x47       e10                  1
    x47       e11                 -1
    x47    obj    29.0
    x48       e11                 -1
    x48       e13                  1
    x48    obj    27.0
    x49       e11                 -1
    x49       e15                  1
    x49    obj    66.0
    x50       e11                 -1
    x50       e16                  1
    x50    obj    62.0
    x51       e10                  1
    x51       e12                 -1
    x51    obj    85.0
    x52       e12                 -1
    x52       e14                  1
    x52    obj    58.0
    x53       e12                 -1
    x53       e15                  1
    x53    obj    43.0
    x54       e13                 -1
    x54    obj    32.0
    x55       e10                  1
    x55       e13                 -1
    x55    obj    28.0
    x56       e11                  1
    x56       e13                 -1
    x56    obj    27.0
    x57       e13                 -1
    x57       e16                  1
    x57    obj    53.0
    x58       e14                 -1
    x58    obj    130.0
    x59       e12                  1
    x59       e14                 -1
    x59    obj    58.0
    x60       e14                 -1
    x60       e15                  1
    x60    obj    48.0
    x61       e15                 -1
    x61    obj    85.0
    x62       e10                  1
    x62       e15                 -1
    x62    obj    75.0
    x63       e11                  1
    x63       e15                 -1
    x63    obj    66.0
    x64       e12                  1
    x64       e15                 -1
    x64    obj    43.0
    x65       e14                  1
    x65       e15                 -1
    x65    obj    48.0
    x66       e9                   1
    x66       e16                 -1
    x66    obj    25.0
    x67       e11                  1
    x67       e16                 -1
    x67    obj    62.0
    x68       e13                  1
    x68       e16                 -1
    x68    obj    53.0
    x69       e17                 -1
    x69       e18                  1
    x69    obj    58.0
    x70       e17                 -1
    x70       e24                  1
    x70    obj    25.0
    x71       e17                  1
    x71       e18                 -1
    x71    obj    58.0
    x72       e18                 -1
    x72       e19                  1
    x72    obj    29.0
    x73       e18                 -1
    x73       e21                  1
    x73    obj    32.0
    x74       e18                 -1
    x74       e22                  1
    x74    obj    130.0
    x75       e18                 -1
    x75       e23                  1
    x75    obj    85.0
    x76       e19                  1
    x76    obj    29.0
    x77       e20                  1
    x77    obj    85.0
    x78       e21                  1
    x78    obj    28.0
    x79       e23                  1
    x79    obj    75.0
    x80       e18                  1
    x80       e19                 -1
    x80    obj    29.0
    x81       e19                 -1
    x81    obj    29.0
    x82       e19                 -1
    x82       e21                  1
    x82    obj    27.0
    x83       e19                 -1
    x83       e23                  1
    x83    obj    66.0
    x84       e19                 -1
    x84       e24                  1
    x84    obj    62.0
    x85       e20                 -1
    x85    obj    85.0
    x86       e20                 -1
    x86       e22                  1
    x86    obj    58.0
    x87       e20                 -1
    x87       e23                  1
    x87    obj    43.0
    x88       e18                  1
    x88       e21                 -1
    x88    obj    32.0
    x89       e21                 -1
    x89    obj    28.0
    x90       e19                  1
    x90       e21                 -1
    x90    obj    27.0
    x91       e21                 -1
    x91       e24                  1
    x91    obj    53.0
    x92       e18                  1
    x92       e22                 -1
    x92    obj    130.0
    x93       e20                  1
    x93       e22                 -1
    x93    obj    58.0
    x94       e22                 -1
    x94       e23                  1
    x94    obj    48.0
    x95       e18                  1
    x95       e23                 -1
    x95    obj    85.0
    x96       e23                 -1
    x96    obj    75.0
    x97       e19                  1
    x97       e23                 -1
    x97    obj    66.0
    x98       e20                  1
    x98       e23                 -1
    x98    obj    43.0
    x99       e22                  1
    x99       e23                 -1
    x99    obj    48.0
    x100      e17                  1
    x100      e24                 -1
    x100    obj    25.0
    x101      e19                  1
    x101      e24                 -1
    x101    obj    62.0
    x102      e21                  1
    x102      e24                 -1
    x102    obj    53.0
    x103      e25                 -1
    x103      e26                  1
    x103    obj    58.0
    x104      e25                 -1
    x104      e32                  1
    x104    obj    25.0
    x105      e25                  1
    x105      e26                 -1
    x105    obj    58.0
    x106      e26                 -1
    x106    obj    29.0
    x107      e26                 -1
    x107      e29                  1
    x107    obj    32.0
    x108      e26                 -1
    x108      e30                  1
    x108    obj    130.0
    x109      e26                 -1
    x109      e31                  1
    x109    obj    85.0
    x110      e27                 -1
    x110    obj    29.0
    x111      e27                 -1
    x111      e28                  1
    x111    obj    85.0
    x112      e27                 -1
    x112      e29                  1
    x112    obj    28.0
    x113      e27                 -1
    x113      e31                  1
    x113    obj    75.0
    x114      e26                  1
    x114    obj    29.0
    x115      e27                  1
    x115    obj    29.0
    x116      e29                  1
    x116    obj    27.0
    x117      e31                  1
    x117    obj    66.0
    x118      e32                  1
    x118    obj    62.0
    x119      e27                  1
    x119      e28                 -1
    x119    obj    85.0
    x120      e28                 -1
    x120      e30                  1
    x120    obj    58.0
    x121      e28                 -1
    x121      e31                  1
    x121    obj    43.0
    x122      e26                  1
    x122      e29                 -1
    x122    obj    32.0
    x123      e27                  1
    x123      e29                 -1
    x123    obj    28.0
    x124      e29                 -1
    x124    obj    27.0
    x125      e29                 -1
    x125      e32                  1
    x125    obj    53.0
    x126      e26                  1
    x126      e30                 -1
    x126    obj    130.0
    x127      e28                  1
    x127      e30                 -1
    x127    obj    58.0
    x128      e30                 -1
    x128      e31                  1
    x128    obj    48.0
    x129      e26                  1
    x129      e31                 -1
    x129    obj    85.0
    x130      e27                  1
    x130      e31                 -1
    x130    obj    75.0
    x131      e31                 -1
    x131    obj    66.0
    x132      e28                  1
    x132      e31                 -1
    x132    obj    43.0
    x133      e30                  1
    x133      e31                 -1
    x133    obj    48.0
    x134      e25                  1
    x134      e32                 -1
    x134    obj    25.0
    x135      e32                 -1
    x135    obj    62.0
    x136      e29                  1
    x136      e32                 -1
    x136    obj    53.0
    x137      e33                 -1
    x137      e34                  1
    x137    obj    58.0
    x138      e33                 -1
    x138      e40                  1
    x138    obj    25.0
    x139      e33                  1
    x139      e34                 -1
    x139    obj    58.0
    x140      e34                 -1
    x140      e36                  1
    x140    obj    29.0
    x141      e34                 -1
    x141      e37                  1
    x141    obj    32.0
    x142      e34                 -1
    x142      e38                  1
    x142    obj    130.0
    x143      e34                 -1
    x143      e39                  1
    x143    obj    85.0
    x144      e35                 -1
    x144      e36                  1
    x144    obj    29.0
    x145      e35                 -1
    x145    obj    85.0
    x146      e35                 -1
    x146      e37                  1
    x146    obj    28.0
    x147      e35                 -1
    x147      e39                  1
    x147    obj    75.0
    x148      e34                  1
    x148      e36                 -1
    x148    obj    29.0
    x149      e35                  1
    x149      e36                 -1
    x149    obj    29.0
    x150      e36                 -1
    x150      e37                  1
    x150    obj    27.0
    x151      e36                 -1
    x151      e39                  1
    x151    obj    66.0
    x152      e36                 -1
    x152      e40                  1
    x152    obj    62.0
    x153      e35                  1
    x153    obj    85.0
    x154      e38                  1
    x154    obj    58.0
    x155      e39                  1
    x155    obj    43.0
    x156      e34                  1
    x156      e37                 -1
    x156    obj    32.0
    x157      e35                  1
    x157      e37                 -1
    x157    obj    28.0
    x158      e36                  1
    x158      e37                 -1
    x158    obj    27.0
    x159      e37                 -1
    x159      e40                  1
    x159    obj    53.0
    x160      e34                  1
    x160      e38                 -1
    x160    obj    130.0
    x161      e38                 -1
    x161    obj    58.0
    x162      e38                 -1
    x162      e39                  1
    x162    obj    48.0
    x163      e34                  1
    x163      e39                 -1
    x163    obj    85.0
    x164      e35                  1
    x164      e39                 -1
    x164    obj    75.0
    x165      e36                  1
    x165      e39                 -1
    x165    obj    66.0
    x166      e39                 -1
    x166    obj    43.0
    x167      e38                  1
    x167      e39                 -1
    x167    obj    48.0
    x168      e33                  1
    x168      e40                 -1
    x168    obj    25.0
    x169      e36                  1
    x169      e40                 -1
    x169    obj    62.0
    x170      e37                  1
    x170      e40                 -1
    x170    obj    53.0
    x171      e41                 -1
    x171      e42                  1
    x171    obj    58.0
    x172      e41                 -1
    x172      e48                  1
    x172    obj    25.0
    x173      e41                  1
    x173      e42                 -1
    x173    obj    58.0
    x174      e42                 -1
    x174      e44                  1
    x174    obj    29.0
    x175      e42                 -1
    x175    obj    32.0
    x176      e42                 -1
    x176      e46                  1
    x176    obj    130.0
    x177      e42                 -1
    x177      e47                  1
    x177    obj    85.0
    x178      e43                 -1
    x178      e44                  1
    x178    obj    29.0
    x179      e43                 -1
    x179      e45                  1
    x179    obj    85.0
    x180      e43                 -1
    x180    obj    28.0
    x181      e43                 -1
    x181      e47                  1
    x181    obj    75.0
    x182      e42                  1
    x182      e44                 -1
    x182    obj    29.0
    x183      e43                  1
    x183      e44                 -1
    x183    obj    29.0
    x184      e44                 -1
    x184    obj    27.0
    x185      e44                 -1
    x185      e47                  1
    x185    obj    66.0
    x186      e44                 -1
    x186      e48                  1
    x186    obj    62.0
    x187      e43                  1
    x187      e45                 -1
    x187    obj    85.0
    x188      e45                 -1
    x188      e46                  1
    x188    obj    58.0
    x189      e45                 -1
    x189      e47                  1
    x189    obj    43.0
    x190      e42                  1
    x190    obj    32.0
    x191      e43                  1
    x191    obj    28.0
    x192      e44                  1
    x192    obj    27.0
    x193      e48                  1
    x193    obj    53.0
    x194      e42                  1
    x194      e46                 -1
    x194    obj    130.0
    x195      e45                  1
    x195      e46                 -1
    x195    obj    58.0
    x196      e46                 -1
    x196      e47                  1
    x196    obj    48.0
    x197      e42                  1
    x197      e47                 -1
    x197    obj    85.0
    x198      e43                  1
    x198      e47                 -1
    x198    obj    75.0
    x199      e44                  1
    x199      e47                 -1
    x199    obj    66.0
    x200      e45                  1
    x200      e47                 -1
    x200    obj    43.0
    x201      e46                  1
    x201      e47                 -1
    x201    obj    48.0
    x202      e41                  1
    x202      e48                 -1
    x202    obj    25.0
    x203      e44                  1
    x203      e48                 -1
    x203    obj    62.0
    x204      e48                 -1
    x204    obj    53.0
    x205      e49                 -1
    x205      e50                  1
    x205    obj    58.0
    x206      e49                 -1
    x206      e56                  1
    x206    obj    25.0
    x207      e49                  1
    x207      e50                 -1
    x207    obj    58.0
    x208      e50                 -1
    x208      e52                  1
    x208    obj    29.0
    x209      e50                 -1
    x209      e54                  1
    x209    obj    32.0
    x210      e50                 -1
    x210    obj    130.0
    x211      e50                 -1
    x211      e55                  1
    x211    obj    85.0
    x212      e51                 -1
    x212      e52                  1
    x212    obj    29.0
    x213      e51                 -1
    x213      e53                  1
    x213    obj    85.0
    x214      e51                 -1
    x214      e54                  1
    x214    obj    28.0
    x215      e51                 -1
    x215      e55                  1
    x215    obj    75.0
    x216      e50                  1
    x216      e52                 -1
    x216    obj    29.0
    x217      e51                  1
    x217      e52                 -1
    x217    obj    29.0
    x218      e52                 -1
    x218      e54                  1
    x218    obj    27.0
    x219      e52                 -1
    x219      e55                  1
    x219    obj    66.0
    x220      e52                 -1
    x220      e56                  1
    x220    obj    62.0
    x221      e51                  1
    x221      e53                 -1
    x221    obj    85.0
    x222      e53                 -1
    x222    obj    58.0
    x223      e53                 -1
    x223      e55                  1
    x223    obj    43.0
    x224      e50                  1
    x224      e54                 -1
    x224    obj    32.0
    x225      e51                  1
    x225      e54                 -1
    x225    obj    28.0
    x226      e52                  1
    x226      e54                 -1
    x226    obj    27.0
    x227      e54                 -1
    x227      e56                  1
    x227    obj    53.0
    x228      e50                  1
    x228    obj    130.0
    x229      e53                  1
    x229    obj    58.0
    x230      e55                  1
    x230    obj    48.0
    x231      e50                  1
    x231      e55                 -1
    x231    obj    85.0
    x232      e51                  1
    x232      e55                 -1
    x232    obj    75.0
    x233      e52                  1
    x233      e55                 -1
    x233    obj    66.0
    x234      e53                  1
    x234      e55                 -1
    x234    obj    43.0
    x235      e55                 -1
    x235    obj    48.0
    x236      e49                  1
    x236      e56                 -1
    x236    obj    25.0
    x237      e52                  1
    x237      e56                 -1
    x237    obj    62.0
    x238      e54                  1
    x238      e56                 -1
    x238    obj    53.0
    x239      e57                 -1
    x239      e58                  1
    x239    obj    58.0
    x240      e57                 -1
    x240      e64                  1
    x240    obj    25.0
    x241      e57                  1
    x241      e58                 -1
    x241    obj    58.0
    x242      e58                 -1
    x242      e60                  1
    x242    obj    29.0
    x243      e58                 -1
    x243      e62                  1
    x243    obj    32.0
    x244      e58                 -1
    x244      e63                  1
    x244    obj    130.0
    x245      e58                 -1
    x245    obj    85.0
    x246      e59                 -1
    x246      e60                  1
    x246    obj    29.0
    x247      e59                 -1
    x247      e61                  1
    x247    obj    85.0
    x248      e59                 -1
    x248      e62                  1
    x248    obj    28.0
    x249      e59                 -1
    x249    obj    75.0
    x250      e58                  1
    x250      e60                 -1
    x250    obj    29.0
    x251      e59                  1
    x251      e60                 -1
    x251    obj    29.0
    x252      e60                 -1
    x252      e62                  1
    x252    obj    27.0
    x253      e60                 -1
    x253    obj    66.0
    x254      e60                 -1
    x254      e64                  1
    x254    obj    62.0
    x255      e59                  1
    x255      e61                 -1
    x255    obj    85.0
    x256      e61                 -1
    x256      e63                  1
    x256    obj    58.0
    x257      e61                 -1
    x257    obj    43.0
    x258      e58                  1
    x258      e62                 -1
    x258    obj    32.0
    x259      e59                  1
    x259      e62                 -1
    x259    obj    28.0
    x260      e60                  1
    x260      e62                 -1
    x260    obj    27.0
    x261      e62                 -1
    x261      e64                  1
    x261    obj    53.0
    x262      e58                  1
    x262      e63                 -1
    x262    obj    130.0
    x263      e61                  1
    x263      e63                 -1
    x263    obj    58.0
    x264      e63                 -1
    x264    obj    48.0
    x265      e58                  1
    x265    obj    85.0
    x266      e59                  1
    x266    obj    75.0
    x267      e60                  1
    x267    obj    66.0
    x268      e61                  1
    x268    obj    43.0
    x269      e63                  1
    x269    obj    48.0
    x270      e57                  1
    x270      e64                 -1
    x270    obj    25.0
    x271      e60                  1
    x271      e64                 -1
    x271    obj    62.0
    x272      e62                  1
    x272      e64                 -1
    x272    obj    53.0
    x273      e65                 -1
    x273      e66                  1
    x273    obj    58.0
    x274      e65                 -1
    x274    obj    25.0
    x275      e65                  1
    x275      e66                 -1
    x275    obj    58.0
    x276      e66                 -1
    x276      e68                  1
    x276    obj    29.0
    x277      e66                 -1
    x277      e70                  1
    x277    obj    32.0
    x278      e66                 -1
    x278      e71                  1
    x278    obj    130.0
    x279      e66                 -1
    x279      e72                  1
    x279    obj    85.0
    x280      e67                 -1
    x280      e68                  1
    x280    obj    29.0
    x281      e67                 -1
    x281      e69                  1
    x281    obj    85.0
    x282      e67                 -1
    x282      e70                  1
    x282    obj    28.0
    x283      e67                 -1
    x283      e72                  1
    x283    obj    75.0
    x284      e66                  1
    x284      e68                 -1
    x284    obj    29.0
    x285      e67                  1
    x285      e68                 -1
    x285    obj    29.0
    x286      e68                 -1
    x286      e70                  1
    x286    obj    27.0
    x287      e68                 -1
    x287      e72                  1
    x287    obj    66.0
    x288      e68                 -1
    x288    obj    62.0
    x289      e67                  1
    x289      e69                 -1
    x289    obj    85.0
    x290      e69                 -1
    x290      e71                  1
    x290    obj    58.0
    x291      e69                 -1
    x291      e72                  1
    x291    obj    43.0
    x292      e66                  1
    x292      e70                 -1
    x292    obj    32.0
    x293      e67                  1
    x293      e70                 -1
    x293    obj    28.0
    x294      e68                  1
    x294      e70                 -1
    x294    obj    27.0
    x295      e70                 -1
    x295    obj    53.0
    x296      e66                  1
    x296      e71                 -1
    x296    obj    130.0
    x297      e69                  1
    x297      e71                 -1
    x297    obj    58.0
    x298      e71                 -1
    x298      e72                  1
    x298    obj    48.0
    x299      e66                  1
    x299      e72                 -1
    x299    obj    85.0
    x300      e67                  1
    x300      e72                 -1
    x300    obj    75.0
    x301      e68                  1
    x301      e72                 -1
    x301    obj    66.0
    x302      e69                  1
    x302      e72                 -1
    x302    obj    43.0
    x303      e71                  1
    x303      e72                 -1
    x303    obj    48.0
    x304      e65                  1
    x304    obj    25.0
    x305      e68                  1
    x305    obj    62.0
    x306      e70                  1
    x306    obj    53.0
RHS
    rhs       e1                   1
    rhs       e2                   1
    rhs       e3                   1
    rhs       e4                   1
    rhs       e5                   1
    rhs       e6                   1
    rhs       e7                   1
    rhs       e8                   1
    rhs       e9                   1
    rhs       e10                  1
    rhs       e11                  1
    rhs       e12                  1
    rhs       e13                  1
    rhs       e14                  1
    rhs       e15                  1
    rhs       e16                  1
    rhs       e17                  1
    rhs       e18                  1
    rhs       e19                  1
    rhs       e20                  1
    rhs       e21                  1
    rhs       e22                  1
    rhs       e23                  1
    rhs       e24                  1
    rhs       e25                  1
    rhs       e26                  1
    rhs       e27                  1
    rhs       e28                  1
    rhs       e29                  1
    rhs       e30                  1
    rhs       e31                  1
    rhs       e32                  1
    rhs       e33                  1
    rhs       e34                  1
    rhs       e35                  1
    rhs       e36                  1
    rhs       e37                  1
    rhs       e38                  1
    rhs       e39                  1
    rhs       e40                  1
    rhs       e41                  1
    rhs       e42                  1
    rhs       e43                  1
    rhs       e44                  1
    rhs       e45                  1
    rhs       e46                  1
    rhs       e47                  1
    rhs       e48                  1
    rhs       e49                  1
    rhs       e50                  1
    rhs       e51                  1
    rhs       e52                  1
    rhs       e53                  1
    rhs       e54                  1
    rhs       e55                  1
    rhs       e56                  1
    rhs       e57                  1
    rhs       e58                  1
    rhs       e59                  1
    rhs       e60                  1
    rhs       e61                  1
    rhs       e62                  1
    rhs       e63                  1
    rhs       e64                  1
    rhs       e65                  1
    rhs       e66                  1
    rhs       e67                  1
    rhs       e68                  1
    rhs       e69                  1
    rhs       e70                  1
    rhs       e71                  1
    rhs       e72                  1
BOUNDS
 FR bnd       x307
ENDATA
